NAME : rnd49_50.tsp.tsp.opt.tour
TYPE : TOUR
DIMENSION : 50
TOUR_SECTION
1
19
7
15
24
27
46
3
25
32
42
8
5
20
49
4
38
12
43
36
28
23
37
48
50
11
47
2
21
10
29
14
16
44
41
26
9
34
30
40
39
22
45
6
33
18
35
31
17
13
-1